1111111 AB
548 551 554 557 563 566 569 572 578 581 584 587 593 596 599 585 588 591 560 575 579 582 590 594 597 615 675 802 847 907 1072 1080 1085 1088 1092 1095 1100 1103 1107 1110 1115 1118 1122 1125 1130 1133 1137 1140 1145 1148 1152 1155 1160 1164 1167 1170 1176 1179 1253 1313 1360
1111111 BA
540 543 546 549 555 558 561 564 570 573 576 579 585 588 591 594 577 580 583 592 595 598 552 567 571 574 582 586 589 597 657 687 805 865 922 1079 1080 1084 1087 1092 1095 1099 1102 1107 1110 1114 1117 1122 1125 1129 1132 1137 1140 1144 1147 1152 1155 1159 1162 1167 1171 1257 1317 1347
